(set-option :incremental false)
(set-logic ALL)
(declare-const BAV1 Bool)
(declare-const GEN8 Int)
(declare-const GEN7 Int)
(declare-const GEN6 Int)
(declare-const GEN5 Int)
(declare-const GEN4 Int)
(declare-const GEN3 Int)
(declare-const GEN2 Int)
(declare-const GEN1 Int)
(declare-fun v1 () (_ BitVec 9))
(assert (= BAV1 (= (ite (bvsgt (_ bv0 6) ((_ sign_extend 5) (ite (bvult (_ bv0 9) v1) (_ bv1 1) (_ bv0 1)))) (_ bv1 1) (_ bv0 1)) (bvcomp v1 ((_ sign_extend 8) (ite (bvsgt (_ bv0 6) ((_ sign_extend 5) (ite (bvult (_ bv0 9) v1) (_ bv1 1) (_ bv0 1)))) (_ bv1 1) (_ bv0 1)))))))
(check-sat-assuming ((= (ite (bvsgt (_ bv0 6) ((_ sign_extend 5) (ite (bvult (_ bv0 9) v1) (_ bv1 1) (_ bv0 1)))) (_ bv1 1) (_ bv0 1)) (bvcomp v1 ((_ sign_extend 8) (ite (bvsgt (_ bv0 6) ((_ sign_extend 5) (ite (bvult (_ bv0 9) v1) (_ bv1 1) (_ bv0 1)))) (_ bv1 1) (_ bv0 1)))))))
(get-model)